102     4       
10      10      10      10      
0       0       0       0       0       30      2       3       4       5       6       7       8       9       10      11      12      13      14      15      16      17      18      20      21      
 22      23      24      26      27      28      30      32      41      42      48      
10      1       1       1       1       16      29      31      35      37      39      43      45      46      50      54      57      59      64      94      98      100     
6       6       4       4       1       17      25      33      39      44      52      53      54      55      57      64      67      68      69      94      98      99      100     
1       3       4       2       5       16      34      51      52      53      54      56      63      64      67      68      69      70      90      92      93      97      
6       1       6       2       1       16      31      36      45      46      53      57      58      62      64      84      91      93      94      96      99      100     
10      1       3       4       2       16      33      37      52      54      55      61      63      67      68      70      94      95      96      97      98      100     
10      1       2       1       2       22      46      49      51      54      58      60      61      63      64      66      67      68      70      79      82      84      88      89      90      
 91      92      93      
4       3       2       3       3       14      25      40      49      54      55      62      65      71      82      85      94      97      98      99      
2       3       2       3       3       12      34      38      43      47      49      53      56      68      70      81      90      98      
9       4       5       2       1       15      35      39      45      53      54      61      62      64      67      68      70      90      95      96      99      
6       3       1       2       3       10      19      44      58      62      64      88      91      93      98      100     
8       2       1       1       1       9       19      62      64      69      86      88      90      92      93      
7       3       3       1       1       14      39      45      54      61      62      69      70      88      90      92      96      97      99      100     
6       6       5       1       2       12      34      40      54      62      85      90      93      94      95      96      97      98      
8       3       2       1       1       12      34      46      67      68      79      86      88      91      94      95      99      100     
4       2       1       3       3       12      34      53      67      79      81      86      90      91      92      93      94      95      
1       4       3       4       2       8       31      45      62      84      85      90      91      95      
8       1       2       3       5       7       38      39      55      68      70      95      101     
4       4       2       3       1       14      45      61      63      68      79      81      84      85      87      89      94      95      96      99      
2       4       2       2       4       13      54      55      58      60      62      63      65      66      80      82      84      97      101     
5       2       5       2       2       10      45      46      67      69      73      79      91      92      98      99      
8       3       5       2       2       13      46      58      60      63      66      70      78      84      86      87      91      94      100     
10      1       2       3       2       14      49      60      64      65      67      69      79      81      87      88      89      90      97      98      
5       2       3       1       2       14      54      56      67      75      76      79      84      88      89      91      92      93      98      99      
6       4       4       3       3       13      43      61      66      75      76      77      78      81      84      88      90      91      92      
5       3       2       5       4       9       45      55      84      85      86      89      90      94      96      
2       5       4       1       4       8       39      60      61      62      65      83      88      90      
5       1       2       3       6       11      44      69      75      76      79      81      83      84      90      94      95      
2       3       1       3       4       13      60      61      62      63      67      78      80      86      87      92      93      95      97      
10      3       1       1       2       10      46      60      64      67      68      73      84      89      94      100     
4       1       2       2       1       14      60      63      65      67      68      69      73      78      79      81      83      87      88      89      
6       2       3       2       4       12      53      69      73      77      78      79      80      81      82      84      91      99      
10      2       2       1       3       9       56      60      62      80      82      84      88      92      93      
3       1       3       2       3       6       45      61      75      77      84      89      
3       1       2       2       3       14      66      72      73      75      76      77      79      80      81      82      85      88      89      91      
10      2       3       2       2       13      65      66      73      75      76      77      80      81      82      86      88      90      98      
9       1       4       2       2       11      62      65      66      73      76      77      80      85      88      90      93      
9       2       4       2       3       10      60      62      64      66      67      78      83      84      87      88      
5       1       3       1       1       10      63      73      74      78      81      82      84      85      86      89      
5       3       1       2       3       10      61      67      75      76      77      78      86      87      89      91      
8       2       1       3       5       9       60      72      81      82      89      90      91      92      95      
1       2       3       4       2       9       61      65      70      74      78      79      81      88      93      
2       3       2       3       2       10      72      73      74      79      80      83      86      87      93      96      
5       2       4       5       2       8       61      65      74      77      78      80      85      92      
5       1       1       2       4       7       60      65      66      78      80      82      83      
4       1       3       4       2       8       65      74      75      77      80      81      85      97      
10      3       3       2       1       8       65      73      75      79      82      83      89      96      
9       3       3       1       5       7       64      73      75      77      78      80      82      
6       3       5       5       4       8       72      73      75      76      78      80      83      86      
2       1       3       1       2       7       66      75      77      78      82      84      92      
1       5       1       3       1       7       72      73      74      80      94      95      98      
6       2       2       2       3       5       62      72      74      76      87      
2       3       1       2       1       5       65      74      75      76      88      
3       3       1       4       2       5       77      78      81      86      87      
6       3       2       1       1       5       73      75      77      79      83      
6       1       1       1       1       4       65      73      85      87      
7       5       4       2       2       4       73      75      76      78      
4       3       2       6       4       3       72      73      75      
8       4       3       2       4       2       67      86      
5       2       2       2       2       2       74      76      
6       2       3       5       3       2       72      73      
9       4       2       2       1       2       75      79      
4       2       4       2       4       2       76      77      
1       3       2       4       1       2       72      74      
8       3       3       5       2       1       72      
10      1       1       1       2       1       74      
10      4       1       3       3       1       72      
7       3       1       1       2       1       75      
7       2       1       2       2       1       72      
4       3       2       2       5       1       73      
9       1       1       3       3       1       73      
7       2       3       2       3       1       102     
3       3       3       2       6       1       102     
8       2       2       3       2       1       102     
7       2       2       2       2       1       102     
8       2       3       4       1       1       102     
10      2       4       1       1       1       102     
2       3       3       2       2       1       102     
3       2       2       1       2       1       102     
9       3       2       4       3       1       102     
5       4       5       5       5       1       102     
5       2       2       2       1       1       102     
4       1       3       3       6       1       102     
2       2       2       3       4       1       102     
10      2       2       4       2       1       102     
8       1       2       3       1       1       102     
7       2       3       1       5       1       102     
3       3       1       2       3       1       102     
2       4       2       2       3       1       102     
10      1       3       3       1       1       102     
9       6       2       3       1       1       102     
4       2       3       4       2       1       102     
2       1       2       2       3       1       102     
1       2       1       3       2       1       102     
9       2       3       4       3       1       102     
9       2       4       2       1       1       102     
2       4       2       2       1       1       102     
3       2       1       2       2       1       102     
3       1       4       2       1       1       102     
7       4       1       3       2       1       102     
3       3       3       4       3       1       102     
0       0       0       0       0       0       
